c File: instances/24_0.30_1.col
c
c Description: Random graph of size 24 vertices and P(0.3) of edges between any two vertices.
p col 24 276
e 1 2
e 1 3
e 1 5
e 1 6
e 1 9
e 1 11
e 1 12
e 1 14
e 1 15
e 1 18
e 1 21
e 1 23
e 2 3
e 2 9
e 2 12
e 2 17
e 2 20
e 3 5
e 3 7
e 3 9
e 3 10
e 3 13
e 3 15
e 3 16
e 3 17
e 3 19
e 4 5
e 4 6
e 4 7
e 4 15
e 4 17
e 4 19
e 4 20
e 5 14
e 5 15
e 6 9
e 6 12
e 6 24
e 7 9
e 7 11
e 7 17
e 7 18
e 7 20
e 7 21
e 8 12
e 8 16
e 8 17
e 8 19
e 8 21
e 8 22
e 8 23
e 8 24
e 9 14
e 9 17
e 9 20
e 9 21
e 10 13
e 10 16
e 10 18
e 10 20
e 10 21
e 10 23
e 11 12
e 11 21
e 12 13
e 12 14
e 12 16
e 12 20
e 12 23
e 12 24
e 13 14
e 13 17
e 13 21
e 13 22
e 14 18
e 14 19
e 14 20
e 14 22
e 14 24
e 15 17
e 16 17
e 16 18
e 17 23
e 17 24
e 19 20
e 19 24
e 20 24